p cnf 7230 17
-2468 -3084 3605 0
3084 -3605 0
-1814 -3094 -3610 0
-2472 -3088 -3608 0
-2470 -3066 -3606 0
1814 -3611 0
2472 -3609 0
2470 -3607 0
3610 3611 0
3608 3609 0
3606 3607 0
3094 -3611 0
3088 -3609 0
3066 -3607 0
2476 -3613 0
3604 3605 0
-3604 -3605 0
